622,397
664,382
874,672
718,169
999,88
875,265
857,164
817,673
452,91
704,554
570,748
282,535
606,880
171,406
681,-74
560,318
948,542
368,507
558,575
681,136
850,575
723,448
282,535
885,806
635,264
471,406
635,110
536,511
1020,652
385,360
504,59
293,688
487,547
1045,142
